c SAT-encoding for the no-three-in-line problem of N=4
p cnf 136 658
-17 -18 0
-17 -19 0
-18 -19 0
-17 3 0
-17 6 0
-3 -6 17 0
-18 3 0
-18 9 0
-3 -9 18 0
-19 6 0
-19 9 0
-6 -9 19 0
-20 -21 0
-20 -22 0
-20 -23 0
-20 -24 0
-20 -25 0
-21 -22 0
-21 -23 0
-21 -24 0
-21 -25 0
-22 -23 0
-22 -24 0
-22 -25 0
-23 -24 0
-23 -25 0
-24 -25 0
-20 4 0
-20 7 0
-4 -7 20 0
-21 4 0
-21 10 0
-4 -10 21 0
-22 4 0
-22 13 0
-4 -13 22 0
-23 7 0
-23 10 0
-7 -10 23 0
-24 7 0
-24 13 0
-7 -13 24 0
-25 10 0
-25 13 0
-10 -13 25 0
-26 -27 0
-26 -28 0
-27 -28 0
-26 8 0
-26 11 0
-8 -11 26 0
-27 8 0
-27 14 0
-8 -14 27 0
-28 11 0
-28 14 0
-11 -14 28 0
29 30 31 32 33 34 0
-29 -30 0
-29 -31 0
-29 -32 0
-29 -33 0
-29 -34 0
-30 -31 0
-30 -32 0
-30 -33 0
-30 -34 0
-31 -32 0
-31 -33 0
-31 -34 0
-32 -33 0
-32 -34 0
-33 -34 0
-29 5 0
-29 6 0
-5 -6 29 0
-30 5 0
-30 7 0
-5 -7 30 0
-31 5 0
-31 8 0
-5 -8 31 0
-32 6 0
-32 7 0
-6 -7 32 0
-33 6 0
-33 8 0
-6 -8 33 0
-34 7 0
-34 8 0
-7 -8 34 0
35 36 37 38 39 40 0
-35 -36 0
-35 -37 0
-35 -38 0
-35 -39 0
-35 -40 0
-36 -37 0
-36 -38 0
-36 -39 0
-36 -40 0
-37 -38 0
-37 -39 0
-37 -40 0
-38 -39 0
-38 -40 0
-39 -40 0
-35 1 0
-35 2 0
-1 -2 35 0
-36 1 0
-36 3 0
-1 -3 36 0
-37 1 0
-37 4 0
-1 -4 37 0
-38 2 0
-38 3 0
-2 -3 38 0
-39 2 0
-39 4 0
-2 -4 39 0
-40 3 0
-40 4 0
-3 -4 40 0
41 42 43 44 45 46 0
-41 -42 0
-41 -43 0
-41 -44 0
-41 -45 0
-41 -46 0
-42 -43 0
-42 -44 0
-42 -45 0
-42 -46 0
-43 -44 0
-43 -45 0
-43 -46 0
-44 -45 0
-44 -46 0
-45 -46 0
-41 9 0
-41 10 0
-9 -10 41 0
-42 9 0
-42 11 0
-9 -11 42 0
-43 9 0
-43 12 0
-9 -12 43 0
-44 10 0
-44 11 0
-10 -11 44 0
-45 10 0
-45 12 0
-10 -12 45 0
-46 11 0
-46 12 0
-11 -12 46 0
47 48 49 50 51 52 0
-47 -48 0
-47 -49 0
-47 -50 0
-47 -51 0
-47 -52 0
-48 -49 0
-48 -50 0
-48 -51 0
-48 -52 0
-49 -50 0
-49 -51 0
-49 -52 0
-50 -51 0
-50 -52 0
-51 -52 0
-47 13 0
-47 14 0
-13 -14 47 0
-48 13 0
-48 15 0
-13 -15 48 0
-49 13 0
-49 16 0
-13 -16 49 0
-50 14 0
-50 15 0
-14 -15 50 0
-51 14 0
-51 16 0
-14 -16 51 0
-52 15 0
-52 16 0
-15 -16 52 0
-53 -54 0
-53 -55 0
-54 -55 0
-53 2 0
-53 7 0
-2 -7 53 0
-54 2 0
-54 12 0
-2 -12 54 0
-55 7 0
-55 12 0
-7 -12 55 0
-56 -57 0
-56 -58 0
-57 -58 0
-56 5 0
-56 10 0
-5 -10 56 0
-57 5 0
-57 15 0
-5 -15 57 0
-58 10 0
-58 15 0
-10 -15 58 0
-59 -60 0
-59 -61 0
-59 -62 0
-59 -63 0
-59 -64 0
-60 -61 0
-60 -62 0
-60 -63 0
-60 -64 0
-61 -62 0
-61 -63 0
-61 -64 0
-62 -63 0
-62 -64 0
-63 -64 0
-59 1 0
-59 6 0
-1 -6 59 0
-60 1 0
-60 11 0
-1 -11 60 0
-61 1 0
-61 16 0
-1 -16 61 0
-62 6 0
-62 11 0
-6 -11 62 0
-63 6 0
-63 16 0
-6 -16 63 0
-64 11 0
-64 16 0
-11 -16 64 0
65 66 67 68 69 70 0
-65 -66 0
-65 -67 0
-65 -68 0
-65 -69 0
-65 -70 0
-66 -67 0
-66 -68 0
-66 -69 0
-66 -70 0
-67 -68 0
-67 -69 0
-67 -70 0
-68 -69 0
-68 -70 0
-69 -70 0
-65 4 0
-65 8 0
-4 -8 65 0
-66 4 0
-66 12 0
-4 -12 66 0
-67 4 0
-67 16 0
-4 -16 67 0
-68 8 0
-68 12 0
-8 -12 68 0
-69 8 0
-69 16 0
-8 -16 69 0
-70 12 0
-70 16 0
-12 -16 70 0
71 72 73 74 75 76 0
-71 -72 0
-71 -73 0
-71 -74 0
-71 -75 0
-71 -76 0
-72 -73 0
-72 -74 0
-72 -75 0
-72 -76 0
-73 -74 0
-73 -75 0
-73 -76 0
-74 -75 0
-74 -76 0
-75 -76 0
-71 1 0
-71 5 0
-1 -5 71 0
-72 1 0
-72 9 0
-1 -9 72 0
-73 1 0
-73 13 0
-1 -13 73 0
-74 5 0
-74 9 0
-5 -9 74 0
-75 5 0
-75 13 0
-5 -13 75 0
-76 9 0
-76 13 0
-9 -13 76 0
77 78 79 80 81 82 0
-77 -78 0
-77 -79 0
-77 -80 0
-77 -81 0
-77 -82 0
-78 -79 0
-78 -80 0
-78 -81 0
-78 -82 0
-79 -80 0
-79 -81 0
-79 -82 0
-80 -81 0
-80 -82 0
-81 -82 0
-77 1 0
-77 5 0
-1 -5 77 0
-78 1 0
-78 9 0
-1 -9 78 0
-79 1 0
-79 13 0
-1 -13 79 0
-80 5 0
-80 9 0
-5 -9 80 0
-81 5 0
-81 13 0
-5 -13 81 0
-82 9 0
-82 13 0
-9 -13 82 0
83 84 85 86 87 88 0
-83 -84 0
-83 -85 0
-83 -86 0
-83 -87 0
-83 -88 0
-84 -85 0
-84 -86 0
-84 -87 0
-84 -88 0
-85 -86 0
-85 -87 0
-85 -88 0
-86 -87 0
-86 -88 0
-87 -88 0
-83 2 0
-83 6 0
-2 -6 83 0
-84 2 0
-84 10 0
-2 -10 84 0
-85 2 0
-85 14 0
-2 -14 85 0
-86 6 0
-86 10 0
-6 -10 86 0
-87 6 0
-87 14 0
-6 -14 87 0
-88 10 0
-88 14 0
-10 -14 88 0
89 90 91 92 93 94 0
-89 -90 0
-89 -91 0
-89 -92 0
-89 -93 0
-89 -94 0
-90 -91 0
-90 -92 0
-90 -93 0
-90 -94 0
-91 -92 0
-91 -93 0
-91 -94 0
-92 -93 0
-92 -94 0
-93 -94 0
-89 2 0
-89 6 0
-2 -6 89 0
-90 2 0
-90 10 0
-2 -10 90 0
-91 2 0
-91 14 0
-2 -14 91 0
-92 6 0
-92 10 0
-6 -10 92 0
-93 6 0
-93 14 0
-6 -14 93 0
-94 10 0
-94 14 0
-10 -14 94 0
95 96 97 98 99 100 0
-95 -96 0
-95 -97 0
-95 -98 0
-95 -99 0
-95 -100 0
-96 -97 0
-96 -98 0
-96 -99 0
-96 -100 0
-97 -98 0
-97 -99 0
-97 -100 0
-98 -99 0
-98 -100 0
-99 -100 0
-95 3 0
-95 7 0
-3 -7 95 0
-96 3 0
-96 11 0
-3 -11 96 0
-97 3 0
-97 15 0
-3 -15 97 0
-98 7 0
-98 11 0
-7 -11 98 0
-99 7 0
-99 15 0
-7 -15 99 0
-100 11 0
-100 15 0
-11 -15 100 0
101 102 103 104 105 106 0
-101 -102 0
-101 -103 0
-101 -104 0
-101 -105 0
-101 -106 0
-102 -103 0
-102 -104 0
-102 -105 0
-102 -106 0
-103 -104 0
-103 -105 0
-103 -106 0
-104 -105 0
-104 -106 0
-105 -106 0
-101 4 0
-101 8 0
-4 -8 101 0
-102 4 0
-102 12 0
-4 -12 102 0
-103 4 0
-103 16 0
-4 -16 103 0
-104 8 0
-104 12 0
-8 -12 104 0
-105 8 0
-105 16 0
-8 -16 105 0
-106 12 0
-106 16 0
-12 -16 106 0
107 108 109 110 111 112 0
-107 -108 0
-107 -109 0
-107 -110 0
-107 -111 0
-107 -112 0
-108 -109 0
-108 -110 0
-108 -111 0
-108 -112 0
-109 -110 0
-109 -111 0
-109 -112 0
-110 -111 0
-110 -112 0
-111 -112 0
-107 3 0
-107 7 0
-3 -7 107 0
-108 3 0
-108 11 0
-3 -11 108 0
-109 3 0
-109 15 0
-3 -15 109 0
-110 7 0
-110 11 0
-7 -11 110 0
-111 7 0
-111 15 0
-7 -15 111 0
-112 11 0
-112 15 0
-11 -15 112 0
113 114 115 116 117 118 0
-113 -114 0
-113 -115 0
-113 -116 0
-113 -117 0
-113 -118 0
-114 -115 0
-114 -116 0
-114 -117 0
-114 -118 0
-115 -116 0
-115 -117 0
-115 -118 0
-116 -117 0
-116 -118 0
-117 -118 0
-113 3 0
-113 7 0
-3 -7 113 0
-114 3 0
-114 11 0
-3 -11 114 0
-115 3 0
-115 15 0
-3 -15 115 0
-116 7 0
-116 11 0
-7 -11 116 0
-117 7 0
-117 15 0
-7 -15 117 0
-118 11 0
-118 15 0
-11 -15 118 0
119 120 121 122 123 124 0
-119 -120 0
-119 -121 0
-119 -122 0
-119 -123 0
-119 -124 0
-120 -121 0
-120 -122 0
-120 -123 0
-120 -124 0
-121 -122 0
-121 -123 0
-121 -124 0
-122 -123 0
-122 -124 0
-123 -124 0
-119 2 0
-119 6 0
-2 -6 119 0
-120 2 0
-120 10 0
-2 -10 120 0
-121 2 0
-121 14 0
-2 -14 121 0
-122 6 0
-122 10 0
-6 -10 122 0
-123 6 0
-123 14 0
-6 -14 123 0
-124 10 0
-124 14 0
-10 -14 124 0
125 126 127 128 129 130 0
-125 -126 0
-125 -127 0
-125 -128 0
-125 -129 0
-125 -130 0
-126 -127 0
-126 -128 0
-126 -129 0
-126 -130 0
-127 -128 0
-127 -129 0
-127 -130 0
-128 -129 0
-128 -130 0
-129 -130 0
-125 1 0
-125 5 0
-1 -5 125 0
-126 1 0
-126 9 0
-1 -9 126 0
-127 1 0
-127 13 0
-1 -13 127 0
-128 5 0
-128 9 0
-5 -9 128 0
-129 5 0
-129 13 0
-5 -13 129 0
-130 9 0
-130 13 0
-9 -13 130 0
131 132 133 134 135 136 0
-131 -132 0
-131 -133 0
-131 -134 0
-131 -135 0
-131 -136 0
-132 -133 0
-132 -134 0
-132 -135 0
-132 -136 0
-133 -134 0
-133 -135 0
-133 -136 0
-134 -135 0
-134 -136 0
-135 -136 0
-131 4 0
-131 8 0
-4 -8 131 0
-132 4 0
-132 12 0
-4 -12 132 0
-133 4 0
-133 16 0
-4 -16 133 0
-134 8 0
-134 12 0
-8 -12 134 0
-135 8 0
-135 16 0
-8 -16 135 0
-136 12 0
-136 16 0
-12 -16 136 0
